4 
5  05 25 41 56 
6  11 26 41 56 
7  11 26 41 56 
8  11 26 41 56 
9  09 24 39 54 
10  09 24 39 54 
11  09 24 39 54 
12  09 24 39 54 
13  10 25 40 55 
14  11 25 40 55 
15  08 23 38 53 
16  08 23 38 53 
17  08 23 38 53 
18  08 25 40 55 
19  09 24 39 54 
20 
